54339
19, 44, 38, 8, 32, 41, 13, 51, 20, 50, 24, 35, 5, 37, 7, 40, 43, 3, 6, 28, 55, 26, 49, 21, 29, 22, 10, 16, 15, 39, 46, 36, 1, 27, 33, 42, 45, 11, 31, 25, 52, 2, 14, 9, 12, 18, 4, 30, 47, 54, 34, 53, 23, 17, 48
